32      4       
17      14      20      17      
0       0       0       0       0       1       2       
5       0       0       1       1       1       3       
9       0       0       3       7       1       4       
8       1       5       0       0       1       5       
10      0       7       0       3       1       6       
7       1       0       0       1       2       14      7       
7       5       0       7       0       1       8       
3       6       0       7       0       2       11      9       
7       0       0       1       11      2       16      10      
8       2       0       8       0       2       19      12      
7       6       2       0       0       2       16      15      
6       5       1       0       0       1       13      
1       0       0       2       6       1       15      
5       0       5       0       6       1       16      
8       0       3       12      0       1       17      
8       0       1       3       0       1       17      
10      0       1       0       7       1       18      
9       0       2       0       6       1       20      
10      3       0       0       6       1       20      
1       0       0       6       1       1       21      
3       0       7       0       1       1       22      
1       1       0       1       0       2       26      23      
3       1       0       0       6       2       28      24      
5       0       12      0       1       1       25      
9       6       0       0       1       1       27      
5       1       1       0       0       1       28      
10      13      0       9       0       1       29      
4       12      1       0       0       1       29      
1       1       0       1       0       1       30      
6       0       4       1       0       1       31      
7       0       1       13      0       1       32      
0       0       0       0       0       0       
